unknown
(model
; cardinality of BoundSet is 5
(declare-sort BoundSet 0)
; rep: @uc_BoundSet_0
; rep: @uc_BoundSet_1
; rep: @uc_BoundSet_2
; rep: @uc_BoundSet_3
; rep: @uc_BoundSet_4
; cardinality of UnboundSet is 1
(declare-sort UnboundSet 0)
(declare-fun groundTerm_6 () UnboundSet)
(define-fun IsWearing ((BOUND_VARIABLE_428 BoundSet) (BOUND_VARIABLE_429 BoundSet)) Bool true)
(define-fun MakesFace ((BOUND_VARIABLE_428 BoundSet) (BOUND_VARIABLE_429 BoundSet)) Bool true)
(define-fun IsBehind ((BOUND_VARIABLE_428 BoundSet) (BOUND_VARIABLE_429 BoundSet)) Bool true)
(define-fun IsStandingNear ((BOUND_VARIABLE_428 BoundSet) (BOUND_VARIABLE_429 BoundSet)) Bool false)
)
sat
(model
; cardinality of BoundSet is 1
(declare-sort BoundSet 0)
; rep: @uc_BoundSet_0
; cardinality of UnboundSet is 1
(declare-sort UnboundSet 0)
(declare-fun groundTerm_8 () UnboundSet)
(define-fun IsWearing ((BOUND_VARIABLE_476 BoundSet) (BOUND_VARIABLE_477 BoundSet)) Bool true)
(define-fun MakesFace ((BOUND_VARIABLE_476 BoundSet) (BOUND_VARIABLE_477 BoundSet)) Bool true)
(define-fun IsBehind ((BOUND_VARIABLE_476 BoundSet) (BOUND_VARIABLE_477 BoundSet)) Bool true)
(define-fun IsStandingNear ((BOUND_VARIABLE_476 BoundSet) (BOUND_VARIABLE_477 BoundSet)) Bool false)
)
